submitit INFO (2023-04-30 19:21:33,004) - Starting with JobEnvironment(job_id=27531, hostname=cpunode2, local_rank=4(5), node=0(1), global_rank=4(5))
submitit INFO (2023-04-30 19:21:33,004) - Loading pickle: /h/30/pashootan/Matrix-Mult-CP/src/../logs/2x2x2_6_Apr30_19:21:31/27531_submitted.pkl
 ! --------------------------------------------------- CP Optimizer 22.1.1.0 --
 ! Satisfiability problem - 72 variables, 237 constraints
 ! TimeLimit            = 7200
 ! Workers              = 8
 ! LogPeriod            = 10000000
 ! RandomSeed           = 3414
 ! Initial process time : 0.02s (0.02s extraction + 0.00s propagation)
 !  . Log search space  : 107.1 (before), 107.1 (after)
 !  . Memory usage      : 575.6 kB (before), 575.6 kB (after)
 ! Using parallel search with 8 workers.
 ! ----------------------------------------------------------------------------
 !               Branches  Non-fixed    W       Branch decision
                   10000k          6    2         1  = W0_1
                   10000k          6    5   F     0  = V2_1
                   10000k          6    4   F     0 != V2_2
                   10000k          6    6         1  = V2_0
                   10000k          6    3   F    -1 != W4_0
                   10000k          6    1   F    -1  = U2_2
                   10000k          7    8   F     0  = V4_0
                   10000k          7    7         1 != V1_0
                   20000k          6    2         1  = U2_2
                   20000k          6    5         1 != W4_1
                   20000k          6    4         0  = W3_1
                   20000k          6    6   F     1  = V0_1
                   20000k          7    1   F     1 != V5_1
                   20000k          7    3         0  = W3_3
                   20000k          8    8            -
                   20000k          8    7        -1 != W0_2
                   30000k          6    2         1 != W3_1
                   30000k          6    5         0  = U0_2
                   30000k          6    6         0  = U4_1
                   30000k          6    4         0 != V0_1
 ! Time = 330.77s, Average fail depth = 18, Memory usage = 140.1 MB
 !               Branches  Non-fixed    W       Branch decision
                   30000k          6    1         1  = V4_3
                   30000k          6    3   F     1  = V1_3
                   30000k          7    8         0 != W0_1
                   30000k          9    7   F     0  = V2_0
                   40000k          7    2         0  = U2_2
                   40000k          7    5         0  = U0_1
                   40000k          6    4        -1 != U0_2
                   40000k          6    6   F     1 != V1_2
                   40000k          7    1        -1 != V2_1
                   40000k          8    3   F     0  = V2_2
                   40000k          6    8         0 != W3_2
                   40000k          8    7        -1 != V5_0
 ! ----------------------------------------------------------------------------
 ! Search completed, model has no solution.
 ! ----------------------------------------------------------------------------
 ! Number of branches     : 379566427
 ! Number of fails        : 187306204
 ! Total memory usage     : 226.9 MB (226.9 MB CP Optimizer + 0.0 MB Concert)
 ! Time spent in solve    : 524.52s (524.50s engine + 0.02s extraction)
 ! Search speed (br. / s) : 723672.9
 ! ----------------------------------------------------------------------------
Infeasible
Saving stats to: /h/30/pashootan/Matrix-Mult-CP/logs/2x2x2_6_Apr30_19:21:31/27531_4_stats.csv
submitit INFO (2023-04-30 19:30:18,068) - Job completed successfully
